************************************************************************
file with basedata            : mm63_.bas
initial value random generator: 87643596
************************************************************************
projects                      :  1
jobs (incl. supersource/sink ):  12
horizon                       :  77
RESOURCES
  - renewable                 :  2   R
  - nonrenewable              :  2   N
  - doubly constrained        :  0   D
************************************************************************
PROJECT INFORMATION:
pronr.  #jobs rel.date duedate tardcost  MPM-Time
    1     10      0       11        5       11
************************************************************************
PRECEDENCE RELATIONS:
jobnr.    #modes  #successors   successors
   0        1          3           1   2   3
   1        3          2           4   9
   2        3          3           6   8   9
   3        3          1           8
   4        3          2           5   6
   5        3          2           7  10
   6        3          1          10
   7        3          1           8
   8        3          1          11
   9        3          1          11
  10        3          1          11
  11        1          0        
************************************************************************
REQUESTS/DURATIONS:
jobnr. mode duration  R 1  R 2  R 3  R 4  E(W 1)  E(W 2)  E(W 3)
------------------------------------------------------------------------
  0      1     0       0    0    0    0     0       0       0
  1      1     6      10    2    4    7    72      24      42
  2      1     1       6    5    4    8    11       4       8
  3      1     5       8    2    8    8    50      40      40
  4      1     1       7    7    7    5    14       7       5
  5      1     2      10    3    8    4    26      16       8
  6      1     2       9    6    9    7    30      18      14
  7      1     1      10    4    7    6    14       7       6
  8      1     1       8    7    2    8    15       2       8
  9      1     3       5    8    3    9    39       9      27
 10      1     2       8    5    6   10    26      12      20
 11      1     0       0    0    0    0     0       0       0
************************************************************************
RESOURCEAVAILABILITIES:
  R 1  R 2  R 3
   43   51   68
************************************************************************
RESOURCE LIMITS:
jobnr.  l(R 1)  u(R 1)  l(R 2)  u(R 2)  l(R 3)  u(R 3)
------------------------------------------------------------------------
  0        0       0       0       0       0       0
  1        6      12       2       4       4       7
  2        6      11       2       4       4       8
  3        5      10       4       8       4       8
  4        8      14       4       7       3       5
  5        7      13       4       8       2       4
  6        8      15       5       9       4       7
  7        7      14       4       7       3       6
  8        8      15       1       2       4       8
  9        7      13       2       3       5       9
 10        7      13       3       6       5      10
 11        0       0       0       0       0       0
************************************************************************
SCENARIOS:
------------------------------------------------------------------------
RESOURCE k = 1
s = 1: (0, 82, 9, 40, 11, 23, 25, 8, 23, 32, 22, 0)
s = 2: (0, 62, 9, 62, 19, 16, 26, 13, 17, 22, 28, 0)
s = 3: (0, 99, 11, 44, 9, 49, 38, 21, 20, 71, 22, 0)
s = 4: (0, 45, 11, 64, 15, 15, 30, 18, 11, 54, 45, 0)
s = 5: (0, 86, 11, 42, 9, 24, 27, 13, 19, 23, 24, 0)
s = 6: (0, 57, 7, 39, 12, 30, 28, 21, 15, 47, 38, 0)
s = 7: (0, 72, 14, 51, 16, 24, 34, 8, 17, 28, 25, 0)
s = 8: (0, 112, 16, 58, 13, 23, 31, 18, 23, 53, 21, 0)
s = 9: (0, 63, 15, 30, 13, 27, 28, 15, 16, 51, 19, 0)
s = 10: (0, 95, 9, 53, 19, 28, 31, 10, 17, 46, 24, 0)
s = 11: (0, 58, 10, 72, 20, 21, 46, 23, 26, 52, 27, 0)
s = 12: (0, 51, 11, 48, 18, 33, 28, 14, 18, 29, 36, 0)
s = 13: (0, 83, 8, 71, 14, 35, 21, 14, 13, 52, 19, 0)
s = 14: (0, 60, 8, 53, 14, 16, 28, 15, 13, 43, 31, 0)
s = 15: (0, 70, 12, 32, 22, 18, 32, 15, 18, 28, 41, 0)
s = 16: (0, 53, 13, 55, 11, 24, 33, 15, 21, 24, 18, 0)
s = 17: (0, 56, 12, 60, 11, 18, 44, 12, 17, 46, 22, 0)
s = 18: (0, 97, 19, 32, 18, 19, 34, 16, 12, 59, 41, 0)
s = 19: (0, 63, 6, 66, 9, 29, 22, 18, 11, 32, 33, 0)
s = 20: (0, 82, 15, 29, 13, 22, 43, 10, 25, 50, 23, 0)
s = 21: (0, 78, 10, 47, 21, 32, 18, 23, 11, 27, 35, 0)
s = 22: (0, 76, 9, 41, 12, 19, 20, 13, 9, 50, 22, 0)
s = 23: (0, 74, 11, 49, 9, 22, 30, 9, 17, 38, 19, 0)
s = 24: (0, 52, 11, 63, 15, 32, 20, 17, 15, 33, 37, 0)
s = 25: (0, 53, 8, 62, 17, 34, 24, 9, 12, 27, 22, 0)
s = 26: (0, 76, 12, 39, 10, 30, 28, 12, 19, 34, 22, 0)
s = 27: (0, 64, 12, 33, 14, 27, 41, 16, 8, 36, 42, 0)
s = 28: (0, 58, 12, 35, 10, 33, 37, 17, 11, 29, 25, 0)
s = 29: (0, 66, 11, 37, 10, 21, 21, 14, 15, 74, 23, 0)
s = 30: (0, 71, 13, 48, 21, 19, 31, 14, 21, 33, 18, 0)
s = 31: (0, 75, 7, 36, 8, 19, 36, 11, 15, 28, 22, 0)
s = 32: (0, 57, 15, 48, 14, 22, 20, 13, 17, 33, 29, 0)
s = 33: (0, 71, 10, 49, 14, 38, 20, 12, 12, 35, 38, 0)
s = 34: (0, 58, 11, 38, 13, 17, 30, 15, 10, 40, 34, 0)
s = 35: (0, 112, 10, 67, 18, 19, 25, 17, 18, 29, 15, 0)
s = 36: (0, 96, 6, 51, 18, 16, 31, 14, 13, 49, 34, 0)
s = 37: (0, 50, 16, 54, 13, 20, 19, 20, 24, 61, 14, 0)
s = 38: (0, 58, 12, 51, 14, 19, 20, 21, 10, 61, 15, 0)
s = 39: (0, 83, 12, 41, 12, 28, 32, 21, 17, 23, 18, 0)
s = 40: (0, 88, 13, 39, 12, 27, 29, 8, 17, 37, 35, 0)
s = 41: (0, 87, 9, 70, 11, 24, 31, 13, 14, 29, 20, 0)
s = 42: (0, 58, 19, 91, 17, 27, 21, 14, 12, 45, 21, 0)
s = 43: (0, 94, 16, 43, 16, 44, 46, 17, 17, 30, 14, 0)
s = 44: (0, 78, 15, 48, 13, 25, 32, 21, 16, 24, 21, 0)
s = 45: (0, 90, 8, 38, 14, 19, 30, 15, 18, 31, 36, 0)
s = 46: (0, 56, 9, 38, 15, 20, 20, 16, 10, 50, 34, 0)
s = 47: (0, 61, 8, 71, 17, 27, 28, 20, 15, 26, 23, 0)
s = 48: (0, 39, 9, 30, 24, 21, 31, 13, 16, 25, 25, 0)
s = 49: (0, 44, 7, 66, 13, 25, 27, 12, 9, 27, 28, 0)
s = 50: (0, 76, 10, 38, 10, 20, 25, 18, 11, 35, 28, 0)
s = 51: (0, 44, 6, 61, 16, 21, 39, 13, 14, 51, 30, 0)
s = 52: (0, 104, 12, 39, 9, 19, 24, 13, 10, 65, 22, 0)
s = 53: (0, 59, 15, 86, 14, 27, 25, 11, 11, 26, 29, 0)
s = 54: (0, 87, 17, 46, 15, 24, 24, 15, 11, 64, 17, 0)
s = 55: (0, 79, 8, 37, 12, 22, 22, 19, 14, 31, 30, 0)
s = 56: (0, 59, 12, 36, 20, 18, 21, 15, 15, 38, 24, 0)
s = 57: (0, 76, 8, 33, 14, 17, 22, 21, 14, 39, 25, 0)
s = 58: (0, 60, 12, 48, 17, 42, 20, 16, 18, 31, 46, 0)
s = 59: (0, 42, 9, 88, 14, 19, 39, 17, 17, 51, 19, 0)
s = 60: (0, 63, 10, 62, 13, 33, 42, 15, 15, 36, 25, 0)
s = 61: (0, 55, 8, 36, 20, 33, 48, 16, 25, 31, 29, 0)
s = 62: (0, 54, 9, 41, 19, 40, 19, 10, 11, 44, 27, 0)
s = 63: (0, 93, 13, 48, 9, 32, 38, 19, 24, 55, 33, 0)
s = 64: (0, 45, 12, 52, 17, 18, 24, 15, 16, 38, 30, 0)
s = 65: (0, 48, 11, 43, 17, 24, 39, 11, 17, 32, 26, 0)
s = 66: (0, 59, 10, 46, 14, 22, 23, 19, 14, 40, 19, 0)
s = 67: (0, 124, 14, 35, 14, 28, 29, 9, 11, 42, 17, 0)
s = 68: (0, 52, 12, 67, 16, 38, 18, 20, 17, 47, 19, 0)
s = 69: (0, 55, 8, 43, 16, 22, 25, 22, 21, 48, 20, 0)
s = 70: (0, 81, 10, 54, 22, 35, 29, 11, 13, 53, 31, 0)
s = 71: (0, 102, 10, 44, 18, 23, 45, 25, 19, 23, 41, 0)
s = 72: (0, 57, 6, 27, 13, 35, 41, 12, 16, 43, 22, 0)
s = 73: (0, 79, 10, 51, 15, 18, 36, 10, 21, 47, 32, 0)
s = 74: (0, 88, 15, 44, 14, 22, 26, 11, 9, 54, 26, 0)
s = 75: (0, 90, 14, 41, 15, 16, 24, 17, 16, 33, 31, 0)
s = 76: (0, 75, 7, 64, 23, 35, 28, 22, 17, 28, 17, 0)
s = 77: (0, 56, 11, 47, 14, 18, 35, 24, 21, 37, 20, 0)
s = 78: (0, 59, 7, 41, 15, 37, 34, 14, 15, 57, 19, 0)
s = 79: (0, 53, 11, 55, 13, 41, 35, 14, 15, 30, 35, 0)
s = 80: (0, 92, 14, 70, 17, 25, 36, 11, 27, 48, 39, 0)
s = 81: (0, 96, 10, 38, 20, 46, 29, 23, 18, 30, 34, 0)
s = 82: (0, 69, 17, 48, 11, 28, 22, 18, 18, 32, 19, 0)
s = 83: (0, 132, 11, 50, 12, 22, 36, 12, 13, 61, 25, 0)
s = 84: (0, 80, 17, 65, 17, 30, 35, 24, 20, 36, 28, 0)
s = 85: (0, 80, 15, 65, 16, 27, 28, 21, 19, 50, 25, 0)
s = 86: (0, 74, 10, 38, 25, 26, 43, 14, 12, 25, 38, 0)
s = 87: (0, 81, 13, 71, 11, 26, 38, 9, 12, 26, 30, 0)
s = 88: (0, 76, 15, 33, 14, 22, 36, 9, 17, 51, 33, 0)
s = 89: (0, 41, 9, 58, 8, 21, 31, 16, 14, 40, 35, 0)
s = 90: (0, 51, 21, 29, 11, 27, 39, 9, 11, 26, 19, 0)
s = 91: (0, 45, 11, 37, 15, 23, 28, 9, 18, 34, 33, 0)
s = 92: (0, 65, 13, 32, 9, 23, 35, 10, 12, 23, 30, 0)
s = 93: (0, 62, 14, 51, 18, 23, 19, 17, 15, 53, 28, 0)
s = 94: (0, 53, 8, 43, 18, 24, 20, 19, 11, 46, 29, 0)
s = 95: (0, 75, 16, 52, 19, 15, 17, 14, 26, 43, 31, 0)
s = 96: (0, 65, 8, 66, 16, 20, 23, 13, 18, 50, 20, 0)
s = 97: (0, 68, 8, 29, 13, 20, 37, 14, 21, 57, 30, 0)
s = 98: (0, 54, 9, 37, 18, 28, 22, 17, 17, 32, 21, 0)
s = 99: (0, 68, 15, 51, 11, 33, 23, 15, 11, 45, 17, 0)
s = 100: (0, 60, 9, 43, 13, 23, 21, 10, 22, 33, 24, 0)
s = 101: (0, 44, 8, 32, 14, 44, 24, 16, 9, 29, 36, 0)
s = 102: (0, 83, 9, 47, 20, 18, 20, 16, 11, 43, 21, 0)
s = 103: (0, 49, 12, 43, 19, 39, 28, 12, 18, 32, 28, 0)
s = 104: (0, 68, 15, 39, 17, 29, 24, 15, 13, 55, 34, 0)
s = 105: (0, 60, 9, 53, 19, 20, 29, 11, 9, 35, 22, 0)
s = 106: (0, 111, 12, 60, 17, 17, 25, 11, 21, 50, 38, 0)
s = 107: (0, 45, 15, 69, 13, 17, 31, 15, 12, 51, 33, 0)
s = 108: (0, 58, 12, 57, 16, 35, 18, 23, 9, 32, 27, 0)
s = 109: (0, 103, 13, 45, 9, 30, 20, 18, 31, 26, 32, 0)
s = 110: (0, 76, 9, 61, 11, 25, 25, 12, 14, 24, 33, 0)
s = 111: (0, 46, 16, 27, 11, 28, 32, 13, 16, 55, 23, 0)
s = 112: (0, 55, 9, 32, 9, 38, 41, 8, 13, 23, 19, 0)
s = 113: (0, 76, 11, 59, 10, 33, 19, 18, 15, 30, 25, 0)
s = 114: (0, 69, 9, 41, 15, 23, 26, 11, 17, 32, 22, 0)
s = 115: (0, 112, 20, 77, 16, 20, 33, 15, 19, 35, 28, 0)
s = 116: (0, 96, 15, 29, 11, 35, 29, 9, 16, 30, 22, 0)
s = 117: (0, 47, 19, 72, 12, 24, 23, 16, 19, 27, 25, 0)
s = 118: (0, 77, 15, 51, 19, 15, 37, 16, 17, 56, 33, 0)
s = 119: (0, 94, 14, 48, 20, 30, 53, 16, 18, 50, 16, 0)
s = 120: (0, 76, 8, 72, 17, 22, 33, 11, 10, 57, 30, 0)
s = 121: (0, 71, 11, 53, 15, 24, 30, 9, 12, 58, 44, 0)
s = 122: (0, 97, 15, 29, 13, 18, 21, 13, 19, 31, 35, 0)
s = 123: (0, 64, 15, 69, 14, 17, 34, 17, 19, 23, 34, 0)
s = 124: (0, 82, 7, 47, 11, 14, 46, 13, 10, 60, 40, 0)
s = 125: (0, 66, 7, 58, 10, 30, 23, 13, 15, 23, 22, 0)
s = 126: (0, 51, 10, 47, 24, 16, 32, 16, 15, 31, 20, 0)
s = 127: (0, 70, 10, 67, 13, 19, 22, 21, 10, 50, 29, 0)
s = 128: (0, 52, 10, 86, 14, 24, 36, 13, 14, 34, 25, 0)
s = 129: (0, 103, 14, 49, 10, 29, 26, 11, 19, 36, 20, 0)
s = 130: (0, 91, 9, 49, 10, 32, 42, 10, 11, 21, 16, 0)
s = 131: (0, 62, 7, 51, 15, 21, 17, 11, 19, 27, 22, 0)
s = 132: (0, 40, 8, 60, 20, 32, 18, 12, 12, 35, 29, 0)
s = 133: (0, 124, 11, 39, 10, 21, 25, 13, 15, 41, 22, 0)
s = 134: (0, 78, 8, 35, 14, 27, 28, 14, 20, 50, 20, 0)
s = 135: (0, 63, 15, 32, 11, 29, 30, 19, 22, 22, 29, 0)
s = 136: (0, 47, 7, 35, 13, 20, 25, 22, 12, 28, 17, 0)
s = 137: (0, 68, 12, 40, 12, 25, 29, 14, 11, 56, 42, 0)
s = 138: (0, 61, 7, 62, 11, 17, 21, 19, 10, 30, 25, 0)
s = 139: (0, 50, 7, 53, 14, 31, 39, 10, 11, 35, 36, 0)
s = 140: (0, 72, 7, 71, 17, 23, 23, 14, 18, 43, 36, 0)
s = 141: (0, 88, 10, 38, 10, 39, 40, 10, 12, 50, 24, 0)
s = 142: (0, 42, 14, 47, 12, 37, 25, 18, 10, 58, 29, 0)
s = 143: (0, 61, 6, 31, 16, 18, 33, 15, 15, 43, 26, 0)
s = 144: (0, 55, 14, 46, 19, 20, 26, 10, 15, 22, 34, 0)
s = 145: (0, 45, 11, 39, 12, 21, 33, 19, 11, 38, 34, 0)
s = 146: (0, 55, 17, 46, 10, 20, 23, 18, 18, 37, 24, 0)
s = 147: (0, 74, 15, 64, 20, 20, 25, 22, 12, 24, 23, 0)
s = 148: (0, 45, 8, 53, 13, 21, 36, 12, 14, 33, 22, 0)
s = 149: (0, 66, 10, 38, 18, 22, 35, 14, 11, 45, 38, 0)
s = 150: (0, 55, 16, 51, 18, 36, 22, 13, 22, 51, 24, 0)
s = 151: (0, 83, 11, 34, 19, 18, 22, 19, 13, 41, 32, 0)
s = 152: (0, 106, 8, 37, 9, 33, 29, 8, 27, 27, 37, 0)
s = 153: (0, 52, 10, 58, 18, 32, 28, 23, 11, 61, 14, 0)
s = 154: (0, 79, 7, 42, 11, 15, 36, 10, 22, 50, 17, 0)
s = 155: (0, 43, 7, 41, 21, 26, 20, 17, 11, 29, 35, 0)
s = 156: (0, 77, 15, 34, 12, 19, 28, 14, 13, 32, 24, 0)
s = 157: (0, 66, 12, 40, 15, 31, 40, 15, 20, 42, 17, 0)
s = 158: (0, 88, 9, 66, 17, 20, 31, 19, 11, 36, 26, 0)
s = 159: (0, 52, 9, 59, 12, 22, 26, 13, 16, 25, 25, 0)
s = 160: (0, 52, 13, 61, 16, 48, 21, 26, 16, 40, 37, 0)
s = 161: (0, 82, 10, 31, 16, 30, 31, 13, 16, 29, 38, 0)
s = 162: (0, 81, 16, 36, 17, 22, 28, 11, 21, 34, 37, 0)
s = 163: (0, 104, 6, 57, 18, 34, 24, 16, 11, 27, 27, 0)
s = 164: (0, 63, 6, 28, 11, 24, 20, 8, 20, 55, 35, 0)
s = 165: (0, 45, 15, 50, 18, 21, 38, 20, 12, 24, 38, 0)
s = 166: (0, 56, 16, 45, 10, 31, 36, 23, 20, 38, 30, 0)
s = 167: (0, 76, 15, 73, 14, 31, 28, 15, 15, 46, 34, 0)
s = 168: (0, 75, 10, 44, 20, 44, 24, 11, 14, 25, 19, 0)
s = 169: (0, 60, 14, 42, 15, 27, 26, 23, 12, 38, 33, 0)
s = 170: (0, 55, 12, 58, 16, 23, 39, 13, 13, 49, 21, 0)
s = 171: (0, 60, 16, 68, 17, 24, 26, 19, 20, 46, 24, 0)
s = 172: (0, 40, 11, 47, 10, 32, 30, 16, 15, 37, 19, 0)
s = 173: (0, 88, 10, 38, 14, 20, 22, 18, 16, 32, 18, 0)
s = 174: (0, 68, 14, 38, 13, 31, 40, 14, 14, 43, 21, 0)
s = 175: (0, 63, 13, 46, 19, 18, 53, 9, 22, 39, 22, 0)
s = 176: (0, 54, 15, 42, 12, 19, 20, 11, 16, 29, 25, 0)
s = 177: (0, 81, 15, 49, 12, 33, 36, 13, 12, 35, 20, 0)
s = 178: (0, 56, 12, 61, 17, 22, 23, 14, 16, 29, 18, 0)
s = 179: (0, 87, 12, 43, 11, 21, 26, 17, 22, 34, 40, 0)
s = 180: (0, 87, 7, 33, 17, 27, 37, 11, 10, 48, 52, 0)
s = 181: (0, 73, 12, 41, 13, 23, 32, 9, 25, 51, 24, 0)
s = 182: (0, 80, 14, 63, 14, 24, 17, 23, 10, 30, 16, 0)
s = 183: (0, 76, 9, 55, 16, 32, 28, 18, 15, 37, 23, 0)
s = 184: (0, 72, 11, 46, 10, 25, 35, 18, 12, 36, 21, 0)
s = 185: (0, 58, 7, 50, 8, 22, 24, 18, 17, 29, 22, 0)
s = 186: (0, 77, 12, 43, 17, 27, 20, 17, 15, 40, 22, 0)
s = 187: (0, 68, 13, 49, 14, 22, 22, 13, 9, 36, 25, 0)
s = 188: (0, 67, 8, 71, 10, 34, 32, 20, 15, 30, 17, 0)
s = 189: (0, 52, 11, 52, 15, 19, 22, 19, 13, 27, 37, 0)
s = 190: (0, 93, 9, 56, 13, 38, 31, 10, 22, 44, 23, 0)
s = 191: (0, 73, 11, 30, 20, 22, 39, 16, 12, 32, 38, 0)
s = 192: (0, 40, 9, 54, 18, 29, 27, 14, 25, 26, 22, 0)
s = 193: (0, 69, 11, 37, 13, 20, 21, 11, 15, 49, 30, 0)
s = 194: (0, 124, 11, 49, 9, 36, 38, 14, 23, 54, 15, 0)
s = 195: (0, 50, 11, 71, 11, 27, 25, 10, 17, 74, 30, 0)
s = 196: (0, 57, 11, 37, 10, 19, 25, 15, 18, 21, 17, 0)
s = 197: (0, 62, 14, 57, 16, 19, 31, 10, 12, 44, 21, 0)
s = 198: (0, 54, 10, 48, 13, 25, 32, 13, 19, 49, 27, 0)
s = 199: (0, 101, 17, 43, 11, 26, 27, 12, 13, 50, 24, 0)
s = 200: (0, 71, 11, 58, 13, 19, 35, 13, 16, 42, 20, 0)
------------------------------------------------------------------------
RESOURCE k = 2
s = 1: (0, 28, 4, 32, 6, 14, 15, 4, 4, 8, 11, 0)
s = 2: (0, 21, 4, 50, 10, 10, 16, 7, 3, 5, 13, 0)
s = 3: (0, 33, 4, 35, 5, 30, 23, 11, 3, 17, 10, 0)
s = 4: (0, 15, 4, 51, 8, 9, 18, 9, 2, 13, 21, 0)
s = 5: (0, 29, 4, 34, 5, 15, 17, 7, 3, 6, 11, 0)
s = 6: (0, 19, 3, 31, 6, 19, 17, 11, 2, 11, 18, 0)
s = 7: (0, 24, 5, 41, 8, 15, 21, 4, 3, 7, 12, 0)
s = 8: (0, 38, 6, 47, 7, 14, 19, 9, 4, 13, 10, 0)
s = 9: (0, 21, 6, 24, 7, 17, 17, 8, 3, 12, 9, 0)
s = 10: (0, 32, 3, 42, 10, 18, 19, 5, 3, 11, 11, 0)
s = 11: (0, 20, 4, 58, 10, 13, 28, 12, 4, 12, 13, 0)
s = 12: (0, 17, 4, 39, 9, 21, 17, 7, 3, 7, 17, 0)
s = 13: (0, 28, 3, 57, 7, 22, 13, 7, 2, 12, 9, 0)
s = 14: (0, 20, 3, 43, 7, 10, 17, 8, 2, 10, 15, 0)
s = 15: (0, 24, 5, 26, 11, 11, 19, 8, 3, 7, 19, 0)
s = 16: (0, 18, 5, 44, 6, 15, 20, 8, 3, 6, 9, 0)
s = 17: (0, 19, 5, 48, 6, 11, 26, 6, 3, 11, 11, 0)
s = 18: (0, 33, 7, 25, 9, 12, 21, 8, 2, 14, 19, 0)
s = 19: (0, 21, 3, 53, 5, 18, 13, 9, 2, 8, 16, 0)
s = 20: (0, 28, 6, 23, 7, 14, 26, 5, 4, 12, 11, 0)
s = 21: (0, 26, 4, 37, 11, 20, 11, 12, 2, 7, 16, 0)
s = 22: (0, 26, 4, 33, 6, 12, 12, 7, 2, 12, 10, 0)
s = 23: (0, 25, 4, 40, 5, 14, 18, 5, 3, 9, 9, 0)
s = 24: (0, 18, 4, 50, 8, 20, 12, 9, 2, 8, 18, 0)
s = 25: (0, 18, 3, 50, 9, 21, 15, 5, 2, 7, 10, 0)
s = 26: (0, 26, 5, 31, 5, 19, 17, 6, 3, 8, 11, 0)
s = 27: (0, 22, 5, 27, 7, 17, 25, 8, 2, 9, 20, 0)
s = 28: (0, 20, 5, 28, 5, 20, 22, 9, 2, 7, 12, 0)
s = 29: (0, 22, 4, 29, 5, 13, 13, 7, 2, 18, 11, 0)
s = 30: (0, 24, 5, 39, 11, 12, 19, 7, 3, 8, 8, 0)
s = 31: (0, 25, 3, 29, 4, 12, 22, 6, 2, 7, 10, 0)
s = 32: (0, 19, 6, 39, 7, 14, 12, 7, 3, 8, 14, 0)
s = 33: (0, 24, 4, 39, 7, 24, 12, 6, 2, 9, 18, 0)
s = 34: (0, 20, 4, 30, 7, 11, 18, 8, 2, 10, 16, 0)
s = 35: (0, 38, 4, 54, 9, 12, 15, 9, 3, 7, 7, 0)
s = 36: (0, 32, 3, 41, 9, 10, 19, 7, 2, 12, 16, 0)
s = 37: (0, 17, 6, 43, 7, 13, 12, 10, 4, 15, 7, 0)
s = 38: (0, 20, 5, 41, 7, 12, 12, 11, 2, 14, 7, 0)
s = 39: (0, 28, 5, 33, 6, 17, 20, 11, 3, 6, 9, 0)
s = 40: (0, 30, 5, 32, 6, 17, 18, 4, 3, 9, 17, 0)
s = 41: (0, 29, 3, 56, 6, 15, 19, 7, 2, 7, 9, 0)
s = 42: (0, 20, 7, 73, 9, 17, 13, 7, 2, 11, 10, 0)
s = 43: (0, 32, 6, 34, 8, 27, 28, 9, 3, 7, 7, 0)
s = 44: (0, 26, 6, 38, 7, 16, 19, 11, 3, 6, 10, 0)
s = 45: (0, 30, 3, 31, 7, 12, 18, 8, 3, 8, 17, 0)
s = 46: (0, 19, 4, 30, 8, 13, 12, 8, 2, 12, 16, 0)
s = 47: (0, 21, 3, 57, 9, 17, 17, 10, 2, 6, 11, 0)
s = 48: (0, 13, 4, 24, 12, 13, 19, 7, 3, 6, 12, 0)
s = 49: (0, 15, 3, 53, 7, 16, 16, 6, 2, 7, 13, 0)
s = 50: (0, 26, 4, 31, 5, 13, 15, 9, 2, 9, 13, 0)
s = 51: (0, 15, 3, 49, 8, 13, 23, 7, 2, 12, 14, 0)
s = 52: (0, 35, 5, 32, 5, 12, 15, 7, 2, 15, 10, 0)
s = 53: (0, 20, 6, 69, 7, 17, 15, 6, 2, 6, 14, 0)
s = 54: (0, 29, 7, 37, 8, 15, 14, 8, 2, 15, 8, 0)
s = 55: (0, 27, 3, 30, 6, 14, 14, 10, 2, 8, 14, 0)
s = 56: (0, 20, 5, 29, 10, 11, 13, 8, 2, 9, 11, 0)
s = 57: (0, 26, 3, 26, 7, 11, 13, 11, 2, 9, 12, 0)
s = 58: (0, 20, 5, 39, 9, 26, 12, 8, 3, 8, 21, 0)
s = 59: (0, 14, 4, 71, 7, 12, 24, 9, 3, 12, 9, 0)
s = 60: (0, 21, 4, 49, 7, 20, 25, 8, 2, 9, 12, 0)
s = 61: (0, 19, 3, 29, 10, 21, 29, 8, 4, 7, 13, 0)
s = 62: (0, 18, 4, 33, 10, 25, 12, 5, 2, 11, 13, 0)
s = 63: (0, 31, 5, 39, 5, 20, 23, 10, 4, 13, 15, 0)
s = 64: (0, 15, 5, 42, 9, 11, 15, 8, 3, 9, 14, 0)
s = 65: (0, 16, 4, 34, 9, 15, 24, 6, 3, 8, 12, 0)
s = 66: (0, 20, 4, 37, 7, 14, 14, 10, 2, 10, 9, 0)
s = 67: (0, 42, 6, 28, 7, 18, 17, 5, 2, 10, 8, 0)
s = 68: (0, 18, 5, 53, 8, 24, 11, 10, 3, 11, 9, 0)
s = 69: (0, 19, 3, 35, 8, 14, 15, 11, 3, 11, 9, 0)
s = 70: (0, 27, 4, 43, 11, 22, 17, 6, 2, 13, 14, 0)
s = 71: (0, 34, 4, 35, 9, 14, 27, 13, 3, 6, 19, 0)
s = 72: (0, 19, 3, 21, 7, 22, 25, 6, 3, 10, 11, 0)
s = 73: (0, 27, 4, 41, 8, 11, 22, 5, 3, 11, 15, 0)
s = 74: (0, 30, 6, 35, 7, 14, 16, 6, 2, 13, 12, 0)
s = 75: (0, 30, 5, 33, 8, 10, 14, 9, 3, 8, 15, 0)
s = 76: (0, 25, 3, 51, 12, 22, 17, 11, 3, 7, 8, 0)
s = 77: (0, 19, 4, 38, 7, 11, 21, 12, 3, 9, 9, 0)
s = 78: (0, 20, 3, 33, 8, 23, 21, 7, 2, 13, 9, 0)
s = 79: (0, 18, 4, 44, 7, 26, 21, 7, 2, 7, 17, 0)
s = 80: (0, 31, 6, 56, 9, 15, 22, 6, 4, 11, 18, 0)
s = 81: (0, 32, 4, 30, 10, 28, 18, 12, 3, 7, 16, 0)
s = 82: (0, 23, 7, 38, 6, 17, 13, 9, 3, 8, 9, 0)
s = 83: (0, 44, 4, 40, 6, 14, 22, 6, 2, 14, 12, 0)
s = 84: (0, 27, 7, 52, 9, 18, 21, 12, 3, 9, 13, 0)
s = 85: (0, 27, 6, 52, 8, 17, 17, 11, 3, 12, 12, 0)
s = 86: (0, 25, 4, 30, 13, 16, 26, 7, 2, 6, 18, 0)
s = 87: (0, 27, 5, 57, 6, 16, 23, 5, 2, 6, 14, 0)
s = 88: (0, 26, 6, 26, 7, 14, 22, 5, 3, 12, 15, 0)
s = 89: (0, 14, 4, 46, 4, 13, 19, 8, 2, 10, 16, 0)
s = 90: (0, 17, 8, 23, 6, 17, 24, 5, 2, 6, 9, 0)
s = 91: (0, 15, 4, 30, 8, 14, 17, 5, 3, 8, 16, 0)
s = 92: (0, 22, 5, 26, 5, 14, 21, 5, 2, 6, 14, 0)
s = 93: (0, 21, 5, 41, 9, 15, 11, 9, 2, 13, 13, 0)
s = 94: (0, 18, 3, 35, 9, 15, 12, 10, 2, 11, 14, 0)
s = 95: (0, 25, 6, 41, 10, 9, 10, 7, 4, 10, 15, 0)
s = 96: (0, 22, 3, 53, 8, 12, 14, 7, 3, 12, 9, 0)
s = 97: (0, 23, 3, 23, 7, 12, 22, 7, 3, 13, 14, 0)
s = 98: (0, 18, 3, 30, 9, 18, 14, 9, 3, 8, 10, 0)
s = 99: (0, 23, 6, 41, 6, 20, 14, 8, 2, 11, 8, 0)
s = 100: (0, 20, 4, 35, 7, 14, 13, 5, 3, 8, 11, 0)
s = 101: (0, 15, 3, 25, 7, 27, 15, 8, 2, 7, 17, 0)
s = 102: (0, 28, 4, 38, 10, 11, 12, 8, 2, 10, 10, 0)
s = 103: (0, 17, 5, 34, 10, 24, 17, 6, 3, 8, 13, 0)
s = 104: (0, 23, 6, 31, 9, 18, 14, 8, 2, 13, 16, 0)
s = 105: (0, 20, 4, 43, 10, 12, 18, 6, 2, 9, 10, 0)
s = 106: (0, 37, 5, 48, 9, 11, 15, 6, 3, 12, 18, 0)
s = 107: (0, 15, 6, 55, 7, 11, 19, 8, 2, 12, 15, 0)
s = 108: (0, 20, 5, 46, 8, 22, 11, 12, 2, 8, 13, 0)
s = 109: (0, 35, 5, 36, 5, 19, 12, 9, 5, 6, 15, 0)
s = 110: (0, 26, 3, 49, 6, 15, 15, 6, 2, 6, 15, 0)
s = 111: (0, 16, 6, 22, 6, 17, 19, 7, 3, 13, 11, 0)
s = 112: (0, 19, 4, 26, 5, 24, 25, 4, 2, 6, 9, 0)
s = 113: (0, 26, 4, 48, 5, 21, 11, 9, 2, 7, 12, 0)
s = 114: (0, 23, 4, 33, 8, 14, 16, 6, 3, 8, 10, 0)
s = 115: (0, 38, 7, 62, 8, 13, 20, 8, 3, 8, 13, 0)
s = 116: (0, 32, 6, 23, 6, 21, 17, 5, 3, 7, 11, 0)
s = 117: (0, 16, 7, 57, 6, 15, 14, 8, 3, 7, 12, 0)
s = 118: (0, 26, 6, 41, 10, 9, 22, 8, 3, 13, 16, 0)
s = 119: (0, 32, 5, 39, 10, 18, 32, 8, 3, 12, 8, 0)
s = 120: (0, 26, 3, 58, 9, 14, 20, 6, 2, 14, 14, 0)
s = 121: (0, 24, 4, 43, 8, 15, 18, 5, 2, 14, 21, 0)
s = 122: (0, 33, 6, 24, 7, 11, 13, 7, 3, 8, 17, 0)
s = 123: (0, 22, 6, 56, 7, 11, 20, 9, 3, 6, 16, 0)
s = 124: (0, 28, 3, 38, 6, 9, 28, 7, 2, 14, 19, 0)
s = 125: (0, 22, 3, 47, 5, 19, 14, 7, 2, 6, 10, 0)
s = 126: (0, 17, 4, 38, 12, 10, 19, 8, 2, 8, 10, 0)
s = 127: (0, 24, 4, 54, 7, 12, 14, 11, 2, 12, 14, 0)
s = 128: (0, 18, 4, 69, 7, 15, 22, 7, 2, 8, 12, 0)
s = 129: (0, 35, 5, 39, 5, 18, 16, 6, 3, 9, 10, 0)
s = 130: (0, 31, 4, 40, 5, 20, 25, 5, 2, 5, 8, 0)
s = 131: (0, 21, 3, 41, 8, 13, 11, 6, 3, 7, 10, 0)
s = 132: (0, 14, 3, 48, 10, 20, 11, 6, 2, 8, 14, 0)
s = 133: (0, 42, 4, 31, 5, 13, 15, 7, 2, 10, 11, 0)
s = 134: (0, 26, 3, 28, 7, 17, 17, 7, 3, 12, 10, 0)
s = 135: (0, 21, 6, 26, 6, 18, 18, 10, 3, 6, 14, 0)
s = 136: (0, 16, 3, 28, 7, 12, 15, 11, 2, 7, 8, 0)
s = 137: (0, 23, 5, 32, 6, 15, 17, 7, 2, 13, 20, 0)
s = 138: (0, 21, 3, 49, 6, 11, 13, 10, 2, 7, 12, 0)
s = 139: (0, 17, 3, 42, 7, 19, 24, 5, 2, 8, 17, 0)
s = 140: (0, 24, 3, 57, 9, 14, 14, 7, 3, 10, 17, 0)
s = 141: (0, 30, 4, 30, 5, 24, 24, 5, 2, 12, 11, 0)
s = 142: (0, 14, 6, 38, 6, 23, 15, 9, 2, 14, 14, 0)
s = 143: (0, 21, 3, 25, 8, 11, 20, 8, 2, 10, 12, 0)
s = 144: (0, 19, 6, 37, 10, 13, 16, 5, 2, 6, 16, 0)
s = 145: (0, 15, 4, 31, 6, 13, 20, 10, 2, 9, 16, 0)
s = 146: (0, 19, 6, 37, 5, 13, 14, 9, 3, 9, 11, 0)
s = 147: (0, 25, 6, 51, 10, 12, 15, 11, 2, 6, 11, 0)
s = 148: (0, 15, 3, 42, 7, 13, 22, 6, 2, 8, 10, 0)
s = 149: (0, 22, 4, 30, 9, 14, 21, 7, 2, 11, 18, 0)
s = 150: (0, 19, 6, 41, 9, 22, 13, 7, 3, 12, 11, 0)
s = 151: (0, 28, 4, 28, 10, 11, 13, 10, 2, 10, 15, 0)
s = 152: (0, 36, 3, 29, 5, 20, 17, 4, 4, 7, 17, 0)
s = 153: (0, 18, 4, 46, 9, 20, 17, 12, 2, 14, 7, 0)
s = 154: (0, 27, 3, 34, 6, 10, 22, 5, 3, 12, 8, 0)
s = 155: (0, 15, 3, 33, 11, 16, 12, 9, 2, 7, 16, 0)
s = 156: (0, 26, 6, 27, 6, 12, 17, 7, 2, 8, 11, 0)
s = 157: (0, 22, 5, 32, 8, 19, 24, 8, 3, 10, 8, 0)
s = 158: (0, 30, 3, 53, 9, 13, 19, 10, 2, 9, 12, 0)
s = 159: (0, 18, 4, 47, 6, 14, 16, 7, 3, 6, 12, 0)
s = 160: (0, 18, 5, 49, 8, 29, 13, 13, 3, 10, 18, 0)
s = 161: (0, 28, 4, 25, 8, 19, 19, 7, 3, 7, 18, 0)
s = 162: (0, 27, 6, 29, 9, 14, 17, 6, 3, 8, 17, 0)
s = 163: (0, 35, 3, 46, 9, 21, 15, 8, 2, 7, 13, 0)
s = 164: (0, 21, 3, 23, 6, 15, 12, 4, 3, 13, 17, 0)
s = 165: (0, 15, 6, 40, 9, 13, 23, 10, 2, 6, 18, 0)
s = 166: (0, 19, 6, 36, 5, 19, 22, 12, 3, 9, 14, 0)
s = 167: (0, 26, 6, 59, 7, 19, 17, 8, 2, 11, 16, 0)
s = 168: (0, 25, 4, 35, 10, 27, 15, 6, 2, 6, 9, 0)
s = 169: (0, 20, 5, 34, 8, 17, 16, 12, 2, 9, 16, 0)
s = 170: (0, 19, 5, 46, 8, 14, 24, 7, 2, 12, 10, 0)
s = 171: (0, 20, 6, 54, 9, 15, 16, 10, 3, 11, 11, 0)
s = 172: (0, 14, 4, 38, 5, 20, 18, 8, 2, 9, 9, 0)
s = 173: (0, 30, 4, 31, 7, 13, 14, 9, 3, 8, 9, 0)
s = 174: (0, 23, 5, 31, 7, 20, 24, 7, 2, 10, 10, 0)
s = 175: (0, 21, 5, 37, 10, 11, 32, 5, 3, 9, 10, 0)
s = 176: (0, 18, 6, 33, 6, 12, 12, 6, 3, 7, 12, 0)
s = 177: (0, 27, 6, 39, 6, 20, 22, 7, 2, 8, 9, 0)
s = 178: (0, 19, 5, 49, 9, 14, 14, 7, 3, 7, 8, 0)
s = 179: (0, 29, 5, 34, 6, 13, 16, 9, 3, 8, 19, 0)
s = 180: (0, 29, 3, 27, 9, 17, 23, 6, 2, 12, 24, 0)
s = 181: (0, 25, 5, 33, 7, 14, 20, 5, 4, 12, 12, 0)
s = 182: (0, 27, 6, 51, 7, 15, 10, 12, 2, 7, 8, 0)
s = 183: (0, 26, 4, 44, 8, 20, 17, 9, 2, 9, 11, 0)
s = 184: (0, 24, 4, 37, 5, 16, 21, 9, 2, 9, 10, 0)
s = 185: (0, 20, 3, 40, 4, 14, 14, 9, 3, 7, 10, 0)
s = 186: (0, 26, 5, 34, 9, 17, 12, 9, 2, 10, 10, 0)
s = 187: (0, 23, 5, 40, 7, 14, 13, 7, 2, 9, 12, 0)
s = 188: (0, 23, 3, 57, 5, 21, 20, 10, 2, 7, 8, 0)
s = 189: (0, 18, 4, 42, 8, 12, 14, 10, 2, 7, 17, 0)
s = 190: (0, 31, 4, 45, 7, 23, 19, 5, 3, 11, 11, 0)
s = 191: (0, 25, 4, 24, 10, 14, 23, 8, 2, 8, 18, 0)
s = 192: (0, 14, 4, 44, 9, 18, 16, 7, 4, 6, 11, 0)
s = 193: (0, 23, 4, 30, 7, 12, 13, 6, 2, 12, 14, 0)
s = 194: (0, 42, 4, 39, 5, 23, 23, 7, 3, 13, 7, 0)
s = 195: (0, 17, 4, 57, 6, 17, 15, 5, 3, 18, 14, 0)
s = 196: (0, 19, 4, 30, 5, 12, 15, 8, 3, 5, 8, 0)
s = 197: (0, 21, 5, 46, 8, 12, 19, 5, 2, 10, 10, 0)
s = 198: (0, 18, 4, 39, 7, 15, 19, 7, 3, 12, 13, 0)
s = 199: (0, 34, 6, 35, 6, 16, 16, 6, 2, 12, 11, 0)
s = 200: (0, 24, 4, 47, 7, 12, 21, 7, 3, 10, 9, 0)
------------------------------------------------------------------------
RESOURCE k = 3
s = 1: (0, 48, 7, 32, 4, 7, 12, 4, 13, 23, 17, 0)
s = 2: (0, 37, 7, 50, 7, 5, 12, 6, 10, 15, 21, 0)
s = 3: (0, 58, 8, 35, 3, 15, 18, 9, 11, 49, 17, 0)
s = 4: (0, 26, 8, 51, 6, 5, 14, 8, 6, 37, 35, 0)
s = 5: (0, 51, 8, 34, 4, 8, 13, 6, 11, 16, 19, 0)
s = 6: (0, 33, 5, 31, 5, 10, 13, 9, 8, 33, 29, 0)
s = 7: (0, 42, 10, 41, 6, 8, 16, 4, 9, 20, 20, 0)
s = 8: (0, 66, 12, 47, 5, 7, 15, 8, 13, 37, 17, 0)
s = 9: (0, 37, 11, 24, 5, 9, 13, 7, 9, 35, 15, 0)
s = 10: (0, 55, 6, 42, 7, 9, 15, 4, 9, 32, 19, 0)
s = 11: (0, 34, 7, 58, 7, 7, 22, 10, 14, 36, 21, 0)
s = 12: (0, 30, 8, 39, 7, 11, 13, 6, 10, 20, 28, 0)
s = 13: (0, 49, 6, 57, 5, 11, 10, 6, 7, 36, 15, 0)
s = 14: (0, 35, 6, 43, 5, 5, 13, 7, 7, 30, 24, 0)
s = 15: (0, 41, 9, 26, 8, 6, 15, 7, 10, 20, 32, 0)
s = 16: (0, 31, 10, 44, 4, 8, 15, 7, 12, 16, 14, 0)
s = 17: (0, 33, 9, 48, 4, 6, 21, 5, 9, 32, 17, 0)
s = 18: (0, 57, 14, 25, 7, 6, 16, 7, 7, 41, 31, 0)
s = 19: (0, 37, 5, 53, 4, 9, 11, 8, 6, 22, 26, 0)
s = 20: (0, 48, 11, 23, 5, 7, 20, 4, 14, 35, 18, 0)
s = 21: (0, 46, 7, 37, 8, 10, 9, 10, 6, 19, 27, 0)
s = 22: (0, 45, 7, 33, 5, 6, 10, 6, 5, 35, 17, 0)
s = 23: (0, 43, 8, 40, 3, 7, 14, 4, 9, 27, 15, 0)
s = 24: (0, 30, 8, 50, 6, 10, 9, 7, 8, 23, 29, 0)
s = 25: (0, 31, 6, 50, 6, 11, 12, 4, 7, 19, 17, 0)
s = 26: (0, 45, 9, 31, 4, 10, 13, 5, 11, 24, 17, 0)
s = 27: (0, 38, 9, 27, 5, 9, 20, 7, 5, 25, 33, 0)
s = 28: (0, 34, 9, 28, 4, 10, 17, 8, 6, 20, 20, 0)
s = 29: (0, 38, 8, 29, 4, 7, 10, 6, 8, 52, 18, 0)
s = 30: (0, 42, 9, 39, 8, 6, 15, 6, 11, 23, 14, 0)
s = 31: (0, 44, 5, 29, 3, 6, 17, 5, 8, 20, 17, 0)
s = 32: (0, 33, 11, 39, 5, 7, 10, 6, 9, 23, 22, 0)
s = 33: (0, 42, 7, 39, 5, 12, 9, 6, 6, 25, 30, 0)
s = 34: (0, 34, 8, 30, 5, 6, 14, 7, 6, 28, 26, 0)
s = 35: (0, 65, 8, 54, 7, 6, 12, 8, 10, 20, 12, 0)
s = 36: (0, 56, 5, 41, 7, 5, 15, 6, 7, 34, 26, 0)
s = 37: (0, 29, 12, 43, 5, 7, 9, 9, 13, 43, 11, 0)
s = 38: (0, 34, 9, 41, 5, 6, 10, 9, 6, 42, 12, 0)
s = 39: (0, 49, 9, 33, 5, 9, 15, 9, 9, 16, 14, 0)
s = 40: (0, 52, 10, 32, 5, 9, 14, 4, 10, 26, 27, 0)
s = 41: (0, 51, 6, 56, 4, 8, 15, 6, 8, 21, 15, 0)
s = 42: (0, 34, 14, 73, 6, 9, 10, 6, 6, 31, 16, 0)
s = 43: (0, 55, 11, 34, 6, 14, 22, 7, 9, 21, 11, 0)
s = 44: (0, 46, 11, 38, 5, 8, 15, 9, 9, 17, 16, 0)
s = 45: (0, 53, 6, 31, 5, 6, 14, 7, 10, 22, 28, 0)
s = 46: (0, 33, 7, 30, 6, 7, 10, 7, 6, 35, 26, 0)
s = 47: (0, 36, 6, 57, 6, 9, 14, 9, 8, 18, 18, 0)
s = 48: (0, 23, 7, 24, 9, 7, 15, 6, 9, 17, 19, 0)
s = 49: (0, 26, 6, 53, 5, 8, 13, 5, 5, 19, 21, 0)
s = 50: (0, 44, 7, 31, 4, 7, 12, 8, 6, 25, 22, 0)
s = 51: (0, 26, 5, 49, 6, 7, 18, 6, 8, 35, 23, 0)
s = 52: (0, 61, 9, 32, 3, 6, 12, 6, 6, 45, 17, 0)
s = 53: (0, 35, 11, 69, 5, 9, 12, 5, 6, 18, 22, 0)
s = 54: (0, 51, 13, 37, 6, 8, 11, 7, 6, 45, 13, 0)
s = 55: (0, 46, 6, 30, 5, 7, 11, 8, 8, 22, 23, 0)
s = 56: (0, 35, 9, 29, 7, 6, 10, 7, 8, 26, 18, 0)
s = 57: (0, 44, 6, 26, 5, 6, 10, 9, 8, 27, 19, 0)
s = 58: (0, 35, 9, 39, 6, 13, 10, 7, 10, 22, 35, 0)
s = 59: (0, 25, 7, 71, 5, 6, 18, 8, 9, 36, 15, 0)
s = 60: (0, 37, 7, 49, 5, 10, 20, 7, 8, 25, 20, 0)
s = 61: (0, 32, 6, 29, 8, 11, 23, 7, 14, 21, 22, 0)
s = 62: (0, 31, 7, 33, 7, 13, 9, 5, 6, 31, 21, 0)
s = 63: (0, 55, 10, 39, 3, 10, 18, 8, 13, 38, 25, 0)
s = 64: (0, 27, 9, 42, 6, 6, 12, 7, 9, 26, 23, 0)
s = 65: (0, 28, 8, 34, 6, 8, 19, 5, 9, 22, 20, 0)
s = 66: (0, 35, 8, 37, 5, 7, 11, 9, 8, 28, 15, 0)
s = 67: (0, 73, 11, 28, 5, 9, 14, 4, 6, 30, 13, 0)
s = 68: (0, 30, 9, 53, 6, 12, 8, 9, 9, 33, 15, 0)
s = 69: (0, 32, 6, 35, 6, 7, 12, 10, 12, 33, 15, 0)
s = 70: (0, 48, 8, 43, 8, 11, 14, 5, 7, 37, 24, 0)
s = 71: (0, 60, 8, 35, 7, 7, 21, 11, 11, 16, 32, 0)
s = 72: (0, 33, 5, 21, 5, 11, 20, 5, 9, 30, 17, 0)
s = 73: (0, 46, 7, 41, 6, 6, 17, 4, 12, 33, 25, 0)
s = 74: (0, 51, 11, 35, 5, 7, 12, 5, 5, 37, 20, 0)
s = 75: (0, 52, 10, 33, 6, 5, 11, 8, 9, 23, 24, 0)
s = 76: (0, 44, 5, 51, 9, 11, 13, 10, 10, 20, 14, 0)
s = 77: (0, 33, 8, 38, 5, 6, 17, 11, 11, 26, 15, 0)
s = 78: (0, 35, 5, 33, 6, 12, 16, 6, 8, 39, 15, 0)
s = 79: (0, 31, 8, 44, 5, 13, 17, 6, 8, 21, 27, 0)
s = 80: (0, 54, 11, 56, 6, 8, 17, 5, 15, 33, 30, 0)
s = 81: (0, 56, 7, 30, 7, 14, 14, 10, 10, 21, 26, 0)
s = 82: (0, 40, 13, 38, 4, 9, 11, 8, 10, 22, 15, 0)
s = 83: (0, 77, 8, 40, 4, 7, 17, 5, 7, 42, 20, 0)
s = 84: (0, 47, 13, 52, 6, 9, 17, 11, 11, 25, 22, 0)
s = 85: (0, 47, 11, 52, 6, 9, 13, 9, 10, 35, 19, 0)
s = 86: (0, 43, 7, 30, 9, 8, 20, 6, 6, 17, 30, 0)
s = 87: (0, 48, 9, 57, 4, 8, 18, 4, 6, 18, 23, 0)
s = 88: (0, 44, 11, 26, 5, 7, 17, 4, 9, 35, 25, 0)
s = 89: (0, 24, 7, 46, 3, 7, 15, 7, 8, 28, 27, 0)
s = 90: (0, 30, 16, 23, 4, 9, 18, 4, 6, 18, 15, 0)
s = 91: (0, 27, 8, 30, 6, 7, 13, 4, 10, 24, 26, 0)
s = 92: (0, 38, 9, 26, 4, 7, 17, 5, 7, 16, 23, 0)
s = 93: (0, 36, 10, 41, 7, 8, 9, 8, 8, 37, 21, 0)
s = 94: (0, 31, 6, 35, 7, 8, 10, 8, 6, 32, 23, 0)
s = 95: (0, 44, 12, 41, 7, 5, 8, 6, 14, 30, 24, 0)
s = 96: (0, 38, 6, 53, 6, 6, 11, 6, 10, 35, 15, 0)
s = 97: (0, 40, 6, 23, 5, 6, 18, 6, 11, 39, 23, 0)
s = 98: (0, 32, 6, 30, 7, 9, 11, 8, 9, 22, 17, 0)
s = 99: (0, 40, 11, 41, 4, 10, 11, 7, 6, 31, 13, 0)
s = 100: (0, 35, 7, 35, 5, 7, 10, 5, 12, 23, 19, 0)
s = 101: (0, 26, 6, 25, 5, 14, 12, 7, 5, 21, 28, 0)
s = 102: (0, 48, 7, 38, 7, 6, 9, 7, 6, 30, 16, 0)
s = 103: (0, 29, 9, 34, 7, 12, 13, 6, 10, 22, 22, 0)
s = 104: (0, 40, 11, 31, 6, 9, 11, 7, 7, 38, 26, 0)
s = 105: (0, 35, 7, 43, 7, 6, 14, 5, 5, 25, 17, 0)
s = 106: (0, 65, 9, 48, 6, 6, 12, 5, 12, 35, 29, 0)
s = 107: (0, 26, 11, 55, 5, 6, 15, 7, 7, 35, 25, 0)
s = 108: (0, 34, 9, 46, 6, 11, 9, 10, 5, 22, 21, 0)
s = 109: (0, 60, 9, 36, 4, 10, 10, 8, 17, 18, 25, 0)
s = 110: (0, 44, 6, 49, 4, 8, 12, 5, 8, 16, 25, 0)
s = 111: (0, 27, 12, 22, 4, 9, 15, 6, 9, 38, 18, 0)
s = 112: (0, 32, 7, 26, 4, 12, 20, 4, 7, 16, 15, 0)
s = 113: (0, 45, 8, 48, 4, 11, 9, 8, 8, 21, 19, 0)
s = 114: (0, 41, 7, 33, 6, 7, 12, 5, 9, 22, 17, 0)
s = 115: (0, 65, 14, 62, 6, 7, 16, 7, 10, 24, 22, 0)
s = 116: (0, 56, 11, 23, 4, 11, 14, 4, 9, 21, 17, 0)
s = 117: (0, 28, 14, 57, 4, 8, 11, 7, 10, 19, 19, 0)
s = 118: (0, 45, 11, 41, 7, 5, 17, 7, 9, 39, 26, 0)
s = 119: (0, 55, 10, 39, 7, 9, 25, 7, 10, 35, 13, 0)
s = 120: (0, 44, 6, 58, 6, 7, 16, 5, 6, 40, 23, 0)
s = 121: (0, 42, 8, 43, 6, 8, 14, 4, 6, 40, 34, 0)
s = 122: (0, 57, 11, 24, 5, 6, 10, 6, 11, 22, 27, 0)
s = 123: (0, 37, 11, 56, 5, 6, 16, 8, 10, 16, 26, 0)
s = 124: (0, 48, 5, 38, 4, 5, 22, 6, 5, 41, 31, 0)
s = 125: (0, 39, 5, 47, 4, 10, 11, 6, 8, 16, 17, 0)
s = 126: (0, 30, 7, 38, 9, 5, 15, 7, 8, 22, 16, 0)
s = 127: (0, 41, 7, 54, 5, 6, 11, 9, 5, 35, 22, 0)
s = 128: (0, 30, 7, 69, 5, 8, 17, 6, 8, 24, 20, 0)
s = 129: (0, 61, 10, 39, 4, 9, 13, 5, 11, 25, 16, 0)
s = 130: (0, 54, 7, 40, 4, 10, 20, 4, 6, 15, 13, 0)
s = 131: (0, 36, 5, 41, 6, 7, 8, 5, 10, 19, 17, 0)
s = 132: (0, 24, 6, 48, 7, 10, 9, 5, 7, 24, 23, 0)
s = 133: (0, 73, 8, 31, 4, 7, 12, 6, 8, 29, 17, 0)
s = 134: (0, 46, 6, 28, 5, 9, 14, 6, 11, 34, 16, 0)
s = 135: (0, 37, 11, 26, 4, 9, 14, 8, 12, 16, 22, 0)
s = 136: (0, 27, 5, 28, 5, 6, 12, 10, 7, 19, 13, 0)
s = 137: (0, 40, 9, 32, 4, 8, 14, 6, 6, 39, 32, 0)
s = 138: (0, 36, 5, 49, 4, 6, 10, 8, 6, 21, 19, 0)
s = 139: (0, 30, 5, 42, 5, 10, 19, 4, 6, 24, 28, 0)
s = 140: (0, 42, 5, 57, 6, 7, 11, 6, 10, 30, 28, 0)
s = 141: (0, 52, 8, 30, 4, 12, 19, 5, 6, 35, 18, 0)
s = 142: (0, 25, 11, 38, 5, 12, 12, 8, 6, 40, 22, 0)
s = 143: (0, 36, 5, 25, 6, 6, 16, 7, 8, 30, 20, 0)
s = 144: (0, 32, 11, 37, 7, 7, 12, 4, 8, 16, 26, 0)
s = 145: (0, 27, 8, 31, 5, 7, 16, 8, 6, 26, 26, 0)
s = 146: (0, 32, 12, 37, 4, 7, 11, 8, 10, 26, 19, 0)
s = 147: (0, 44, 11, 51, 7, 6, 12, 10, 7, 17, 18, 0)
s = 148: (0, 27, 6, 42, 5, 7, 17, 6, 8, 23, 17, 0)
s = 149: (0, 39, 8, 30, 7, 7, 16, 6, 6, 31, 29, 0)
s = 150: (0, 32, 12, 41, 7, 11, 11, 6, 12, 36, 19, 0)
s = 151: (0, 48, 8, 28, 7, 6, 11, 9, 7, 28, 25, 0)
s = 152: (0, 62, 6, 29, 3, 10, 14, 4, 15, 19, 28, 0)
s = 153: (0, 31, 8, 46, 7, 10, 13, 10, 6, 42, 11, 0)
s = 154: (0, 46, 5, 34, 4, 5, 17, 4, 12, 35, 13, 0)
s = 155: (0, 25, 6, 33, 8, 8, 10, 8, 6, 20, 27, 0)
s = 156: (0, 45, 11, 27, 5, 6, 13, 6, 7, 22, 18, 0)
s = 157: (0, 39, 9, 32, 6, 10, 19, 7, 11, 29, 13, 0)
s = 158: (0, 52, 6, 53, 6, 7, 15, 8, 6, 25, 20, 0)
s = 159: (0, 31, 7, 47, 4, 7, 12, 6, 9, 18, 20, 0)
s = 160: (0, 30, 10, 49, 6, 15, 10, 11, 9, 28, 29, 0)
s = 161: (0, 48, 8, 25, 6, 10, 15, 6, 9, 20, 30, 0)
s = 162: (0, 48, 12, 29, 6, 7, 13, 5, 12, 24, 28, 0)
s = 163: (0, 61, 5, 46, 7, 11, 12, 7, 6, 19, 21, 0)
s = 164: (0, 37, 5, 23, 4, 8, 10, 4, 11, 38, 27, 0)
s = 165: (0, 26, 11, 40, 7, 7, 18, 9, 7, 17, 29, 0)
s = 166: (0, 33, 12, 36, 4, 10, 17, 10, 11, 26, 24, 0)
s = 167: (0, 45, 11, 59, 5, 10, 13, 7, 8, 32, 26, 0)
s = 168: (0, 44, 7, 35, 7, 14, 12, 5, 7, 18, 15, 0)
s = 169: (0, 35, 10, 34, 6, 9, 12, 10, 7, 27, 26, 0)
s = 170: (0, 33, 9, 46, 6, 7, 19, 6, 7, 34, 16, 0)
s = 171: (0, 35, 12, 54, 6, 8, 12, 8, 11, 32, 19, 0)
s = 172: (0, 24, 8, 38, 4, 10, 14, 7, 8, 26, 14, 0)
s = 173: (0, 52, 7, 31, 5, 7, 11, 8, 9, 22, 14, 0)
s = 174: (0, 40, 10, 31, 5, 10, 19, 6, 8, 30, 16, 0)
s = 175: (0, 37, 9, 37, 7, 6, 25, 4, 12, 27, 17, 0)
s = 176: (0, 32, 11, 33, 4, 6, 10, 5, 9, 20, 19, 0)
s = 177: (0, 48, 11, 39, 5, 10, 17, 6, 6, 24, 15, 0)
s = 178: (0, 33, 9, 49, 6, 7, 11, 6, 9, 20, 14, 0)
s = 179: (0, 51, 9, 34, 4, 7, 12, 8, 12, 24, 31, 0)
s = 180: (0, 51, 5, 27, 6, 9, 18, 5, 6, 34, 40, 0)
s = 181: (0, 43, 9, 33, 5, 7, 15, 4, 14, 35, 19, 0)
s = 182: (0, 47, 11, 51, 5, 8, 8, 10, 6, 21, 13, 0)
s = 183: (0, 45, 7, 44, 6, 10, 13, 8, 8, 26, 18, 0)
s = 184: (0, 42, 8, 37, 4, 8, 17, 8, 7, 25, 16, 0)
s = 185: (0, 34, 5, 40, 3, 7, 11, 8, 9, 20, 17, 0)
s = 186: (0, 45, 9, 34, 6, 9, 10, 8, 8, 28, 17, 0)
s = 187: (0, 40, 10, 40, 5, 7, 11, 6, 5, 25, 19, 0)
s = 188: (0, 39, 6, 57, 4, 11, 15, 9, 8, 21, 13, 0)
s = 189: (0, 30, 8, 42, 6, 6, 11, 8, 7, 19, 28, 0)
s = 190: (0, 54, 7, 45, 5, 12, 15, 5, 12, 31, 17, 0)
s = 191: (0, 43, 8, 24, 8, 7, 18, 7, 7, 23, 29, 0)
s = 192: (0, 24, 7, 44, 7, 9, 13, 6, 14, 18, 17, 0)
s = 193: (0, 41, 8, 30, 5, 6, 10, 5, 8, 34, 24, 0)
s = 194: (0, 72, 8, 39, 3, 12, 18, 6, 12, 37, 12, 0)
s = 195: (0, 29, 8, 57, 4, 9, 12, 4, 9, 52, 24, 0)
s = 196: (0, 33, 8, 30, 4, 6, 12, 7, 10, 14, 13, 0)
s = 197: (0, 36, 10, 46, 6, 6, 15, 5, 7, 30, 16, 0)
s = 198: (0, 32, 8, 39, 5, 8, 15, 6, 11, 34, 21, 0)
s = 199: (0, 59, 12, 35, 4, 8, 13, 5, 7, 35, 18, 0)
s = 200: (0, 41, 8, 47, 5, 6, 16, 6, 9, 29, 15, 0)
************************************************************************
ES/LS-VALUES:
jobnr.   ES(i)    LS(i)
------------------------------------------------------------------------
  0        0        0
  1        0       55
  2        0       67
  3        0       64
  4       11       66
  5       12       68
  6       12       69
  7       15       72
  8       16       74
  9       11       71
 10       15       73
 11       19       77
************************************************************************
BIG-M-VALUES:
M1 = 64, M2 = 253
************************************************************************
